c Sudoku solution
p cnf 729 0
214 0
248 0
257 0
281 0
295 0
323 0
378 0
382 0
439 0
453 0
528 0
586 0
612 0
641 0
655 0
693 0
756 0
797 0
837 0
317 0
858 0
865 0
899 0
913 0
533 0
972 0
574 0
515 0
591 0
492 0
998 0
876 0
771 0
811 0
416 0
421 0
634 0
627 0
444 0
666 0
468 0
688 0
679 0
475 0
487 0
177 0
273 0
189 0
118 0
229 0
236 0
262 0
719 0
738 0
926 0
935 0
785 0
883 0
984 0
842 0
743 0
764 0
722 0
824 0
125 0
132 0
331 0
345 0
146 0
163 0
151 0
194 0
396 0
959 0
961 0
947 0
549 0
567 0
552 0
354 0
369 0
